(declare-fun v2 () Bool)
(get-qe (forall ((continued-execution Bool)(q1 Bool)(q2 Real)(q3 Real)(q4 Bool)(q5 Bool)(q6 Bool)(q7 Real))v2                                                                                                    ))
(get-qe (forall ((q8 Bool) (q11 Bool)(q12 Bool) (q13 Bool) (q14 Bool) (q15 Real) (Real Real)(Bool Real))     v2                                                                                                                                                                                                                                           ))
